n=150;
k_min=3;
k_max=3;
M=[| 0.0, 1.0, 0.0
 | 0.0, 1.0, 0.0
 | 0.0, 0.98, 0.0
 | 0.0, 1, 0.0
 | 0.0, 1.0, 0.0
 | 0.0, 1.0, 0.0
 | 0.0, 1.0, 0.0
 | 0.0, 0.88, 0.0
 | 0.0, 0.9, 0.0
 | 0.0, 0.96, 0.0
 | 0.0, 0.96, 0.0
 | 0.0, 0.98, 0.0
 | 0.0, 0.98, 0.0
 | 0.0, 0.9, 0.0
 | 0.0, 1.0, 0.0
 | 0.0, 1.0, 0.0
 | 0.0, 1.0, 0.0
 | 0.0, 1.0, 0.0
 | 0.0, 1.0, 0.0
 | 0.0, 1.0, 0.0
 | 0.0, 0.92, 0.0
 | 0.0, 0.92, 0.0
 | 0.0, 0.94, 0.0
 | 0.0, 0.96, 0.0
 | 0.0, 1.0, 0.0
 | 0.0, 1, 0.0
 | 0.0, 0.96, 0.0
 | 0.0, 0.96, 0.0
 | 0.0, 1.0, 0.0
 | 0.0, 1.0, 0.0
 | 0.0, 1.0, 0.0
 | 0.0, 0.92, 0.0
 | 0.0, 1.0, 0.0
 | 0.0, 1.0, 0.0
 | 0.0, 0.96, 0.0
 | 0.0, 0.94, 0.0
 | 0.0, 0.94, 0.0
 | 0.0, 0.96, 0.0
 | 0.0, 0.9, 0.0
 | 0.0, 0.96, 0.0
 | 0.0, 0.96, 0.0
 | 0.0, 0.9, 0.0
 | 0.0, 1, 0.0
 | 0.0, 0.96, 0.0
 | 0.0, 1.0, 0.0
 | 0.0, 0.98, 0.0
 | 0.0, 1.0, 0.0
 | 0.0, 0.98, 0.0
 | 0.0, 0.98, 0.0
 | 0.0, 1.0, 0.0
 | 1.0, 0.0, 0.12
 | 0.96, 0.0, 0.0
 | 0.94, 0.0, 0.18
 | 0.88, 0.0, 0.12
 | 0.98, 0.0, 0.12
 | 0.94, 0.0, 0.12
 | 0.96, 0.0, 0.0
 | 0.68, 0.12, 0.0
 | 1.0, 0.0, 0.12
 | 0.82, 0.0, 0.12
 | 0.8, 0.0, 0.12
 | 0.9, 0.0, 0.12
 | 0.88, 0.0, 0.12
 | 1.0, 0.0, 0.12
 | 0.9, 0.0, 0.12
 | 1.0, 0.0, 0.12
 | 0.92, 0.0, 0.12
 | 1.0, 0.0, 0.12
 | 0.78, 0.0, 0.12
 | 0.9, 0.0, 0.12
 | 1.0, 0.0, 0.12
 | 0.86, 0.0, 0.12
 | 0.92, 0.0, 0.12
 | 0.98, 0.0, 0.12
 | 0.92, 0.0, 0.12
 | 1.0, 0.0, 0.12
 | 1.0, 0.0, 0.12
 | 0.94, 0.0, 0.18
 | 0.94, 0.0, 0.12
 | 1.0, 0.0, 0.12
 | 0.96, 0.0, 0.12
 | 1.0, 0.0, 0.12
 | 1.0, 0.0, 0.12
 | 0.96, 0.0, 0.12
 | 0.98, 0.0, 0.12
 | 1, 0.0, 0.12
 | 1.0, 0.0, 0.12
 | 0.92, 0.0, 0.12
 | 0.98, 0.0, 0.12
 | 0.84, 0.0, 0.12
 | 0.94, 0.0, 0.12
 | 1.0, 0.0, 0.12
 | 1.0, 0.0, 0.12
 | 0.68, 0.12, 0.0
 | 0.96, 0.0, 0.12
 | 1.0, 0.0, 0.12
 | 1.0, 0.0, 0.12
 | 0.94, 0.0, 0.12
 | 0.68, 0.12, 0.0
 | 0.96, 0.0, 0.12
 | 0.92, 0.0, 0.22
 | 0.98, 0.0, 0.12
 | 1, 0.0, 0.78
 | 1.0, 0.0, 0.22
 | 0.94, 0.0, 0.22
 | 0.22, 0.0, 1.0
 | 0.88, 0.0, 0.12
 | 0.22, 0.0, 0.92
 | 0.98, 0.0, 0.22
 | 0.22, 0.0, 0.88
 | 0.96, 0.0, 0.18
 | 1.0, 0.0, 0.18
 | 1.0, 0.0, 0.22
 | 0.98, 0.0, 0.12
 | 0.84, 0.0, 0.12
 | 0.98, 0.0, 0.22
 | 1.0, 0.0, 0.22
 | 0.22, 0.0, 1
 | 0.22, 0.0, 1.0
 | 0.92, 0.0, 0.12
 | 0.92, 0.0, 0.22
 | 0.98, 0.0, 0.12
 | 0.22, 0.0, 1.0
 | 0.94, 0.0, 0.12
 | 0.92, 0.0, 0.22
 | 0.22, 0.0, 0.9
 | 0.94, 0.0, 0.12
 | 1.0, 0.0, 0.12
 | 1.0, 0.0, 0.22
 | 0.3, 0.0, 0.82
 | 0.22, 0.0, 0.92
 | 0.22, 0.0, 1.0
 | 1.0, 0.0, 0.22
 | 0.94, 0.0, 0.12
 | 0.9, 0.0, 0.18
 | 0.22, 0.0, 0.94
 | 0.94, 0.0, 0.22
 | 1.0, 0.0, 0.22
 | 1.0, 0.0, 0.12
 | 1.0, 0.0, 0.22
 | 0.92, 0.0, 0.22
 | 1.0, 0.0, 0.22
 | 0.98, 0.0, 0.12
 | 0.92, 0.0, 0.22
 | 0.92, 0.0, 0.22
 | 1.0, 0.0, 0.22
 | 0.96, 0.0, 0.12
 | 0.96, 0.0, 0.18
 | 0.98, 0.0, 0.22
 | 0.98, 0.0, 0.12 |];
 P=[2, 2, 2, 2, 2, 2, 2, 2, 2, 2, 2, 2, 2, 2, 2, 2, 2, 2, 2, 2, 2, 2, 2, 2, 2, 2, 2, 2, 2, 2, 2, 2, 2, 2, 2, 2, 2, 2, 2, 2, 2, 2, 2, 2, 2, 2, 2, 2, 2, 2, 1, 1, 1, 1, 1, 1, 1, 1, 1, 1, 1, 1, 1, 1, 1, 1, 1, 1, 1, 1, 1, 1, 1, 1, 1, 1, 1, 1, 1, 1, 1, 1, 1, 1, 1, 1, 1, 1, 1, 1, 1, 1, 1, 1, 1, 1, 1, 1, 1, 1, 1, 1, 3, 1, 1, 3, 1, 3, 1, 3, 1, 1, 1, 1, 1, 1, 1, 3, 3, 1, 1, 1, 3, 1, 1, 3, 1, 1, 1, 3, 3, 3, 1, 1, 1, 3, 1, 1, 1, 1, 1, 1, 1, 1, 1, 1, 1, 1, 1, 1 ];